
Gurobi 9.1.2 (linux64, gurobi_cl) logging started Fri Jul 30 13:53:57 2021

Using license file /opt/gurobi/gurobi.lic
Set parameter TimeLimit to value 600
Set parameter Cuts to value 1
Set parameter LogFile to value 912-Cuts1-glass4-2.log
Set parameter Seed to value 2

Gurobi Optimizer version 9.1.2 build v9.1.2rc0 (linux64)
Copyright (c) 2021, Gurobi Optimization, LLC

Read MPS format model from file /nfs/models/mip/glass4.mps.bz2
Reading time = 0.00 seconds
glass4: 396 rows, 322 columns, 1815 nonzeros
Thread count: 4 physical cores, 8 logical processors, using up to 8 threads
Optimize a model with 396 rows, 322 columns and 1815 nonzeros
Model fingerprint: 0x0a9d9037
Variable types: 20 continuous, 302 integer (0 binary)
Coefficient statistics:
  Matrix range     [1e+00, 8e+06]
  Objective range  [1e+00, 1e+06]
  Bounds range     [1e+00, 8e+02]
  RHS range        [1e+00, 8e+06]
Presolve removed 6 rows and 6 columns
Presolve time: 0.00s
Presolved: 390 rows, 316 columns, 1803 nonzeros
Variable types: 19 continuous, 297 integer (297 binary)
Found heuristic solution: objective 3.133356e+09

Root relaxation: objective 8.000024e+08, 72 iterations, 0.00 seconds

    Nodes    |    Current Node    |     Objective Bounds      |     Work
 Expl Unexpl |  Obj  Depth IntInf | Incumbent    BestBd   Gap | It/Node Time

     0     0 8.0000e+08    0   72 3.1334e+09 8.0000e+08  74.5%     -    0s
H    0     0                    2.150017e+09 8.0000e+08  62.8%     -    0s
H    0     0                    2.100017e+09 8.0000e+08  61.9%     -    0s
     0     0 8.0000e+08    0   72 2.1000e+09 8.0000e+08  61.9%     -    0s
H    0     0                    2.100016e+09 8.0000e+08  61.9%     -    0s
     0     0 8.0000e+08    0   84 2.1000e+09 8.0000e+08  61.9%     -    0s
     0     0 8.0000e+08    0   82 2.1000e+09 8.0000e+08  61.9%     -    0s
H    0     0                    1.900016e+09 8.0000e+08  57.9%     -    0s
     0     2 8.0000e+08    0   79 1.9000e+09 8.0000e+08  57.9%     -    0s
H 1046   936                    1.814302e+09 8.0000e+08  55.9%   5.2    0s
H 1051   892                    1.700016e+09 8.0000e+08  52.9%   5.1    0s
H 1124   904                    1.700016e+09 8.0000e+08  52.9%   7.0    0s
H 1171   938                    1.677793e+09 8.0000e+08  52.3%   7.5    0s
H 1187   892                    1.650016e+09 8.0000e+08  51.5%   7.7    0s
H 1209   846                    1.500014e+09 8.0000e+08  46.7%   7.9    0s
H 1361   871                    1.483347e+09 8.0000e+08  46.1%   9.3    0s
H 1444   855                    1.480014e+09 8.0000e+08  45.9%  10.3    0s
H 4545  2375                    1.460014e+09 8.0001e+08  45.2%  14.2    1s
 13932  8640 1.0000e+09   44   50 1.4600e+09 8.0001e+08  45.2%  15.8    5s
 24936 15682 8.0001e+08   39   72 1.4600e+09 8.0001e+08  45.2%  17.7   10s
 40641 24921 1.0000e+09   49   61 1.4600e+09 8.0001e+08  45.2%  18.0   15s
 57670 34321 8.0001e+08   52   71 1.4600e+09 8.0001e+08  45.2%  17.8   20s
 76503 44953 1.2333e+09   60   59 1.4600e+09 8.0001e+08  45.2%  17.4   25s
 88878 51200 1.2000e+09   62   69 1.4600e+09 8.0001e+08  45.2%  17.6   30s
 107219 61713 1.1000e+09   60   33 1.4600e+09 8.0001e+08  45.2%  17.2   35s
 121970 70301 8.3711e+08   49   56 1.4600e+09 8.0001e+08  45.2%  17.2   40s
 139507 77656 1.2141e+09   47   66 1.4600e+09 8.0001e+08  45.2%  16.9   45s
 153456 87757 1.0000e+09   56   34 1.4600e+09 8.0001e+08  45.2%  17.0   50s
 166406 91717 1.2000e+09   59   27 1.4600e+09 8.0001e+08  45.2%  17.0   55s
 184226 102669 8.5992e+08   55   57 1.4600e+09 8.0001e+08  45.2%  16.9   60s
 203718 110191 infeasible   60      1.4600e+09 8.0001e+08  45.2%  16.5   65s
 220099 118201 9.5001e+08   60   55 1.4600e+09 8.0001e+08  45.2%  16.3   70s
*220719 114492              71    1.400013e+09 8.0001e+08  42.9%  16.4   70s
H225209 116579                    1.400013e+09 8.0001e+08  42.9%  16.3   71s
H232281 89386                    1.200013e+09 8.0001e+08  33.3%  16.2   73s
 234695 88339 infeasible   58      1.2000e+09 8.0001e+08  33.3%  16.4   75s
 244198 82181 infeasible   55      1.2000e+09 8.5001e+08  29.2%  17.7   80s
 257839 71323 infeasible   75      1.2000e+09 9.0001e+08  25.0%  18.6   85s
 286954 46842 infeasible   56      1.2000e+09 1.0333e+09  13.9%  18.6   90s

Cutting planes:
  Gomory: 105
  Cover: 2
  Implied bound: 36
  MIR: 23
  Flow cover: 227
  GUB cover: 1
  RLT: 122
  Relax-and-lift: 107

Explored 321982 nodes (5724586 simplex iterations) in 94.21 seconds
Thread count was 8 (of 8 available processors)

Solution count 10: 1.20001e+09 1.40001e+09 1.40001e+09 ... 1.70002e+09

Optimal solution found (tolerance 1.00e-04)
Best objective 1.200012600000e+09, best bound 1.200001742786e+09, gap 0.0009%
